(set-info :category "industrial")
(set-info :status sat)
(declare-fun x00 () (_ BitVec 8))
(declare-fun x02 () (_ BitVec 8))
(declare-fun x03 () (_ BitVec 8))
(declare-fun x06 () (_ BitVec 8))
(declare-fun x08 () (_ BitVec 8))
(declare-fun x11 () (_ BitVec 8))
(declare-fun x14 () (_ BitVec 8))
(declare-fun x17 () (_ BitVec 8))
(declare-fun x18 () (_ BitVec 8))
(declare-fun x20 () (_ BitVec 8))
(declare-fun x21 () (_ BitVec 8))
(declare-fun x22 () (_ BitVec 8))
(declare-fun x24 () (_ BitVec 8))
(declare-fun x25 () (_ BitVec 8))
(declare-fun x26 () (_ BitVec 8))
(declare-fun x27 () (_ BitVec 8))
(declare-fun x28 () (_ BitVec 8))
(declare-fun x31 () (_ BitVec 8))
(declare-fun x34 () (_ BitVec 8))
(declare-fun x38 () (_ BitVec 8))
(declare-fun x41 () (_ BitVec 8))
(declare-fun x42 () (_ BitVec 8))
(declare-fun x43 () (_ BitVec 8))
(declare-fun x44 () (_ BitVec 8))
(declare-fun x47 () (_ BitVec 8))
(declare-fun x48 () (_ BitVec 8))
(declare-fun x50 () (_ BitVec 8))
(declare-fun x55 () (_ BitVec 8))
(declare-fun x56 () (_ BitVec 8))
(declare-fun x58 () (_ BitVec 8))
(declare-fun x61 () (_ BitVec 8))
(declare-fun x64 () (_ BitVec 8))
(declare-fun x65 () (_ BitVec 8))
(declare-fun x66 () (_ BitVec 8))
(declare-fun x72 () (_ BitVec 8))
(declare-fun x74 () (_ BitVec 8))
(declare-fun x75 () (_ BitVec 8))
(declare-fun x78 () (_ BitVec 8))
(declare-fun x80 () (_ BitVec 8))
(declare-fun x81 () (_ BitVec 8))
(declare-fun x82 () (_ BitVec 8))
(declare-fun x83 () (_ BitVec 8))
(declare-fun x85 () (_ BitVec 8))
(declare-fun x86 () (_ BitVec 8))
(declare-fun x87 () (_ BitVec 8))
(declare-fun x88 () (_ BitVec 8))
(assert (bvult x00 (_ bv9 8)))
(assert (bvult x02 (_ bv9 8)))
(assert (bvult x03 (_ bv9 8)))
(assert (bvult x06 (_ bv9 8)))
(assert (bvult x08 (_ bv9 8)))
(assert (bvult x11 (_ bv9 8)))
(assert (bvult x14 (_ bv9 8)))
(assert (bvult x17 (_ bv9 8)))
(assert (bvult x18 (_ bv9 8)))
(assert (bvult x20 (_ bv9 8)))
(assert (bvult x21 (_ bv9 8)))
(assert (bvult x22 (_ bv9 8)))
(assert (bvult x24 (_ bv9 8)))
(assert (bvult x25 (_ bv9 8)))
(assert (bvult x26 (_ bv9 8)))
(assert (bvult x27 (_ bv9 8)))
(assert (bvult x28 (_ bv9 8)))
(assert (bvult x31 (_ bv9 8)))
(assert (bvult x34 (_ bv9 8)))
(assert (bvult x38 (_ bv9 8)))
(assert (bvult x41 (_ bv9 8)))
(assert (bvult x42 (_ bv9 8)))
(assert (bvult x43 (_ bv9 8)))
(assert (bvult x44 (_ bv9 8)))
(assert (bvult x47 (_ bv9 8)))
(assert (bvult x48 (_ bv9 8)))
(assert (bvult x50 (_ bv9 8)))
(assert (bvult x55 (_ bv9 8)))
(assert (bvult x56 (_ bv9 8)))
(assert (bvult x58 (_ bv9 8)))
(assert (bvult x61 (_ bv9 8)))
(assert (bvult x64 (_ bv9 8)))
(assert (bvult x65 (_ bv9 8)))
(assert (bvult x66 (_ bv9 8)))
(assert (bvult x72 (_ bv9 8)))
(assert (bvult x74 (_ bv9 8)))
(assert (bvult x75 (_ bv9 8)))
(assert (bvult x78 (_ bv9 8)))
(assert (bvult x80 (_ bv9 8)))
(assert (bvult x81 (_ bv9 8)))
(assert (bvult x82 (_ bv9 8)))
(assert (bvult x83 (_ bv9 8)))
(assert (bvult x85 (_ bv9 8)))
(assert (bvult x86 (_ bv9 8)))
(assert (bvult x87 (_ bv9 8)))
(assert (bvult x88 (_ bv9 8)))
(assert (not (= x00 (_ bv6 8))))
(assert (not (= x00 x02)))
(assert (not (= x00 x03)))
(assert (not (= x00 (_ bv1 8))))
(assert (not (= x00 (_ bv4 8))))
(assert (not (= x00 x06)))
(assert (not (= x00 (_ bv7 8))))
(assert (not (= x00 x08)))
(assert (not (= (_ bv6 8) x02)))
(assert (not (= (_ bv6 8) x03)))
(assert (not (= (_ bv6 8) (_ bv1 8))))
(assert (not (= (_ bv6 8) (_ bv4 8))))
(assert (not (= (_ bv6 8) x06)))
(assert (not (= (_ bv6 8) (_ bv7 8))))
(assert (not (= (_ bv6 8) x08)))
(assert (not (= x02 x03)))
(assert (not (= x02 (_ bv1 8))))
(assert (not (= x02 (_ bv4 8))))
(assert (not (= x02 x06)))
(assert (not (= x02 (_ bv7 8))))
(assert (not (= x02 x08)))
(assert (not (= x03 (_ bv1 8))))
(assert (not (= x03 (_ bv4 8))))
(assert (not (= x03 x06)))
(assert (not (= x03 (_ bv7 8))))
(assert (not (= x03 x08)))
(assert (not (= (_ bv1 8) (_ bv4 8))))
(assert (not (= (_ bv1 8) x06)))
(assert (not (= (_ bv1 8) (_ bv7 8))))
(assert (not (= (_ bv1 8) x08)))
(assert (not (= (_ bv4 8) x06)))
(assert (not (= (_ bv4 8) (_ bv7 8))))
(assert (not (= (_ bv4 8) x08)))
(assert (not (= x06 (_ bv7 8))))
(assert (not (= x06 x08)))
(assert (not (= (_ bv7 8) x08)))
(assert (not (= (_ bv5 8) x11)))
(assert (not (= (_ bv5 8) (_ bv1 8))))
(assert (not (= (_ bv5 8) (_ bv3 8))))
(assert (not (= (_ bv5 8) x14)))
(assert (not (= (_ bv5 8) (_ bv6 8))))
(assert (not (= (_ bv5 8) (_ bv9 8))))
(assert (not (= (_ bv5 8) x17)))
(assert (not (= (_ bv5 8) x18)))
(assert (not (= x11 (_ bv1 8))))
(assert (not (= x11 (_ bv3 8))))
(assert (not (= x11 x14)))
(assert (not (= x11 (_ bv6 8))))
(assert (not (= x11 (_ bv9 8))))
(assert (not (= x11 x17)))
(assert (not (= x11 x18)))
(assert (not (= (_ bv1 8) (_ bv3 8))))
(assert (not (= (_ bv1 8) x14)))
(assert (not (= (_ bv1 8) (_ bv6 8))))
(assert (not (= (_ bv1 8) (_ bv9 8))))
(assert (not (= (_ bv1 8) x17)))
(assert (not (= (_ bv1 8) x18)))
(assert (not (= (_ bv3 8) x14)))
(assert (not (= (_ bv3 8) (_ bv6 8))))
(assert (not (= (_ bv3 8) (_ bv9 8))))
(assert (not (= (_ bv3 8) x17)))
(assert (not (= (_ bv3 8) x18)))
(assert (not (= x14 (_ bv6 8))))
(assert (not (= x14 (_ bv9 8))))
(assert (not (= x14 x17)))
(assert (not (= x14 x18)))
(assert (not (= (_ bv6 8) (_ bv9 8))))
(assert (not (= (_ bv6 8) x17)))
(assert (not (= (_ bv6 8) x18)))
(assert (not (= (_ bv9 8) x17)))
(assert (not (= (_ bv9 8) x18)))
(assert (not (= x17 x18)))
(assert (not (= x20 x21)))
(assert (not (= x20 x22)))
(assert (not (= x20 (_ bv8 8))))
(assert (not (= x20 x24)))
(assert (not (= x20 x25)))
(assert (not (= x20 x26)))
(assert (not (= x20 x27)))
(assert (not (= x20 x28)))
(assert (not (= x21 x22)))
(assert (not (= x21 (_ bv8 8))))
(assert (not (= x21 x24)))
(assert (not (= x21 x25)))
(assert (not (= x21 x26)))
(assert (not (= x21 x27)))
(assert (not (= x21 x28)))
(assert (not (= x22 (_ bv8 8))))
(assert (not (= x22 x24)))
(assert (not (= x22 x25)))
(assert (not (= x22 x26)))
(assert (not (= x22 x27)))
(assert (not (= x22 x28)))
(assert (not (= (_ bv8 8) x24)))
(assert (not (= (_ bv8 8) x25)))
(assert (not (= (_ bv8 8) x26)))
(assert (not (= (_ bv8 8) x27)))
(assert (not (= (_ bv8 8) x28)))
(assert (not (= x24 x25)))
(assert (not (= x24 x26)))
(assert (not (= x24 x27)))
(assert (not (= x24 x28)))
(assert (not (= x25 x26)))
(assert (not (= x25 x27)))
(assert (not (= x25 x28)))
(assert (not (= x26 x27)))
(assert (not (= x26 x28)))
(assert (not (= x27 x28)))
(assert (not (= (_ bv6 8) x31)))
(assert (not (= (_ bv6 8) (_ bv4 8))))
(assert (not (= (_ bv6 8) (_ bv2 8))))
(assert (not (= (_ bv6 8) x34)))
(assert (not (= (_ bv6 8) (_ bv5 8))))
(assert (not (= (_ bv6 8) (_ bv8 8))))
(assert (not (= (_ bv6 8) (_ bv3 8))))
(assert (not (= (_ bv6 8) x38)))
(assert (not (= x31 (_ bv4 8))))
(assert (not (= x31 (_ bv2 8))))
(assert (not (= x31 x34)))
(assert (not (= x31 (_ bv5 8))))
(assert (not (= x31 (_ bv8 8))))
(assert (not (= x31 (_ bv3 8))))
(assert (not (= x31 x38)))
(assert (not (= (_ bv4 8) (_ bv2 8))))
(assert (not (= (_ bv4 8) x34)))
(assert (not (= (_ bv4 8) (_ bv5 8))))
(assert (not (= (_ bv4 8) (_ bv8 8))))
(assert (not (= (_ bv4 8) (_ bv3 8))))
(assert (not (= (_ bv4 8) x38)))
(assert (not (= (_ bv2 8) x34)))
(assert (not (= (_ bv2 8) (_ bv5 8))))
(assert (not (= (_ bv2 8) (_ bv8 8))))
(assert (not (= (_ bv2 8) (_ bv3 8))))
(assert (not (= (_ bv2 8) x38)))
(assert (not (= x34 (_ bv5 8))))
(assert (not (= x34 (_ bv8 8))))
(assert (not (= x34 (_ bv3 8))))
(assert (not (= x34 x38)))
(assert (not (= (_ bv5 8) (_ bv8 8))))
(assert (not (= (_ bv5 8) (_ bv3 8))))
(assert (not (= (_ bv5 8) x38)))
(assert (not (= (_ bv8 8) (_ bv3 8))))
(assert (not (= (_ bv8 8) x38)))
(assert (not (= (_ bv3 8) x38)))
(assert (not (= (_ bv3 8) x41)))
(assert (not (= (_ bv3 8) x42)))
(assert (not (= (_ bv3 8) x43)))
(assert (not (= (_ bv3 8) x44)))
(assert (not (= (_ bv3 8) (_ bv9 8))))
(assert (not (= (_ bv3 8) (_ bv7 8))))
(assert (not (= (_ bv3 8) x47)))
(assert (not (= (_ bv3 8) x48)))
(assert (not (= x41 x42)))
(assert (not (= x41 x43)))
(assert (not (= x41 x44)))
(assert (not (= x41 (_ bv9 8))))
(assert (not (= x41 (_ bv7 8))))
(assert (not (= x41 x47)))
(assert (not (= x41 x48)))
(assert (not (= x42 x43)))
(assert (not (= x42 x44)))
(assert (not (= x42 (_ bv9 8))))
(assert (not (= x42 (_ bv7 8))))
(assert (not (= x42 x47)))
(assert (not (= x42 x48)))
(assert (not (= x43 x44)))
(assert (not (= x43 (_ bv9 8))))
(assert (not (= x43 (_ bv7 8))))
(assert (not (= x43 x47)))
(assert (not (= x43 x48)))
(assert (not (= x44 (_ bv9 8))))
(assert (not (= x44 (_ bv7 8))))
(assert (not (= x44 x47)))
(assert (not (= x44 x48)))
(assert (not (= (_ bv9 8) (_ bv7 8))))
(assert (not (= (_ bv9 8) x47)))
(assert (not (= (_ bv9 8) x48)))
(assert (not (= (_ bv7 8) x47)))
(assert (not (= (_ bv7 8) x48)))
(assert (not (= x47 x48)))
(assert (not (= x50 (_ bv5 8))))
(assert (not (= x50 (_ bv7 8))))
(assert (not (= x50 (_ bv1 8))))
(assert (not (= x50 (_ bv8 8))))
(assert (not (= x50 x55)))
(assert (not (= x50 x56)))
(assert (not (= x50 (_ bv6 8))))
(assert (not (= x50 x58)))
(assert (not (= (_ bv5 8) (_ bv7 8))))
(assert (not (= (_ bv5 8) (_ bv1 8))))
(assert (not (= (_ bv5 8) (_ bv8 8))))
(assert (not (= (_ bv5 8) x55)))
(assert (not (= (_ bv5 8) x56)))
(assert (not (= (_ bv5 8) (_ bv6 8))))
(assert (not (= (_ bv5 8) x58)))
(assert (not (= (_ bv7 8) (_ bv1 8))))
(assert (not (= (_ bv7 8) (_ bv8 8))))
(assert (not (= (_ bv7 8) x55)))
(assert (not (= (_ bv7 8) x56)))
(assert (not (= (_ bv7 8) (_ bv6 8))))
(assert (not (= (_ bv7 8) x58)))
(assert (not (= (_ bv1 8) (_ bv8 8))))
(assert (not (= (_ bv1 8) x55)))
(assert (not (= (_ bv1 8) x56)))
(assert (not (= (_ bv1 8) (_ bv6 8))))
(assert (not (= (_ bv1 8) x58)))
(assert (not (= (_ bv8 8) x55)))
(assert (not (= (_ bv8 8) x56)))
(assert (not (= (_ bv8 8) (_ bv6 8))))
(assert (not (= (_ bv8 8) x58)))
(assert (not (= x55 x56)))
(assert (not (= x55 (_ bv6 8))))
(assert (not (= x55 x58)))
(assert (not (= x56 (_ bv6 8))))
(assert (not (= x56 x58)))
(assert (not (= (_ bv6 8) x58)))
(assert (not (= (_ bv7 8) x61)))
(assert (not (= (_ bv7 8) (_ bv3 8))))
(assert (not (= (_ bv7 8) (_ bv6 8))))
(assert (not (= (_ bv7 8) x64)))
(assert (not (= (_ bv7 8) x65)))
(assert (not (= (_ bv7 8) x66)))
(assert (not (= (_ bv7 8) (_ bv8 8))))
(assert (not (= (_ bv7 8) (_ bv2 8))))
(assert (not (= x61 (_ bv3 8))))
(assert (not (= x61 (_ bv6 8))))
(assert (not (= x61 x64)))
(assert (not (= x61 x65)))
(assert (not (= x61 x66)))
(assert (not (= x61 (_ bv8 8))))
(assert (not (= x61 (_ bv2 8))))
(assert (not (= (_ bv3 8) (_ bv6 8))))
(assert (not (= (_ bv3 8) x64)))
(assert (not (= (_ bv3 8) x65)))
(assert (not (= (_ bv3 8) x66)))
(assert (not (= (_ bv3 8) (_ bv8 8))))
(assert (not (= (_ bv3 8) (_ bv2 8))))
(assert (not (= (_ bv6 8) x64)))
(assert (not (= (_ bv6 8) x65)))
(assert (not (= (_ bv6 8) x66)))
(assert (not (= (_ bv6 8) (_ bv8 8))))
(assert (not (= (_ bv6 8) (_ bv2 8))))
(assert (not (= x64 x65)))
(assert (not (= x64 x66)))
(assert (not (= x64 (_ bv8 8))))
(assert (not (= x64 (_ bv2 8))))
(assert (not (= x65 x66)))
(assert (not (= x65 (_ bv8 8))))
(assert (not (= x65 (_ bv2 8))))
(assert (not (= x66 (_ bv8 8))))
(assert (not (= x66 (_ bv2 8))))
(assert (not (= (_ bv8 8) (_ bv2 8))))
(assert (not (= (_ bv2 8) (_ bv9 8))))
(assert (not (= (_ bv2 8) x72)))
(assert (not (= (_ bv2 8) (_ bv5 8))))
(assert (not (= (_ bv2 8) x74)))
(assert (not (= (_ bv2 8) x75)))
(assert (not (= (_ bv2 8) (_ bv4 8))))
(assert (not (= (_ bv2 8) (_ bv1 8))))
(assert (not (= (_ bv2 8) x78)))
(assert (not (= (_ bv9 8) x72)))
(assert (not (= (_ bv9 8) (_ bv5 8))))
(assert (not (= (_ bv9 8) x74)))
(assert (not (= (_ bv9 8) x75)))
(assert (not (= (_ bv9 8) (_ bv4 8))))
(assert (not (= (_ bv9 8) (_ bv1 8))))
(assert (not (= (_ bv9 8) x78)))
(assert (not (= x72 (_ bv5 8))))
(assert (not (= x72 x74)))
(assert (not (= x72 x75)))
(assert (not (= x72 (_ bv4 8))))
(assert (not (= x72 (_ bv1 8))))
(assert (not (= x72 x78)))
(assert (not (= (_ bv5 8) x74)))
(assert (not (= (_ bv5 8) x75)))
(assert (not (= (_ bv5 8) (_ bv4 8))))
(assert (not (= (_ bv5 8) (_ bv1 8))))
(assert (not (= (_ bv5 8) x78)))
(assert (not (= x74 x75)))
(assert (not (= x74 (_ bv4 8))))
(assert (not (= x74 (_ bv1 8))))
(assert (not (= x74 x78)))
(assert (not (= x75 (_ bv4 8))))
(assert (not (= x75 (_ bv1 8))))
(assert (not (= x75 x78)))
(assert (not (= (_ bv4 8) (_ bv1 8))))
(assert (not (= (_ bv4 8) x78)))
(assert (not (= (_ bv1 8) x78)))
(assert (not (= x80 x81)))
(assert (not (= x80 x82)))
(assert (not (= x80 x83)))
(assert (not (= x80 (_ bv4 8))))
(assert (not (= x80 x85)))
(assert (not (= x80 x86)))
(assert (not (= x80 x87)))
(assert (not (= x80 x88)))
(assert (not (= x81 x82)))
(assert (not (= x81 x83)))
(assert (not (= x81 (_ bv4 8))))
(assert (not (= x81 x85)))
(assert (not (= x81 x86)))
(assert (not (= x81 x87)))
(assert (not (= x81 x88)))
(assert (not (= x82 x83)))
(assert (not (= x82 (_ bv4 8))))
(assert (not (= x82 x85)))
(assert (not (= x82 x86)))
(assert (not (= x82 x87)))
(assert (not (= x82 x88)))
(assert (not (= x83 (_ bv4 8))))
(assert (not (= x83 x85)))
(assert (not (= x83 x86)))
(assert (not (= x83 x87)))
(assert (not (= x83 x88)))
(assert (not (= (_ bv4 8) x85)))
(assert (not (= (_ bv4 8) x86)))
(assert (not (= (_ bv4 8) x87)))
(assert (not (= (_ bv4 8) x88)))
(assert (not (= x85 x86)))
(assert (not (= x85 x87)))
(assert (not (= x85 x88)))
(assert (not (= x86 x87)))
(assert (not (= x86 x88)))
(assert (not (= x87 x88)))
(assert (not (= x00 (_ bv5 8))))
(assert (not (= x00 x20)))
(assert (not (= x00 (_ bv6 8))))
(assert (not (= x00 (_ bv3 8))))
(assert (not (= x00 x50)))
(assert (not (= x00 (_ bv7 8))))
(assert (not (= x00 (_ bv2 8))))
(assert (not (= x00 x80)))
(assert (not (= (_ bv5 8) x20)))
(assert (not (= (_ bv5 8) (_ bv6 8))))
(assert (not (= (_ bv5 8) (_ bv3 8))))
(assert (not (= (_ bv5 8) x50)))
(assert (not (= (_ bv5 8) (_ bv7 8))))
(assert (not (= (_ bv5 8) (_ bv2 8))))
(assert (not (= (_ bv5 8) x80)))
(assert (not (= x20 (_ bv6 8))))
(assert (not (= x20 (_ bv3 8))))
(assert (not (= x20 x50)))
(assert (not (= x20 (_ bv7 8))))
(assert (not (= x20 (_ bv2 8))))
(assert (not (= x20 x80)))
(assert (not (= (_ bv6 8) (_ bv3 8))))
(assert (not (= (_ bv6 8) x50)))
(assert (not (= (_ bv6 8) (_ bv7 8))))
(assert (not (= (_ bv6 8) (_ bv2 8))))
(assert (not (= (_ bv6 8) x80)))
(assert (not (= (_ bv3 8) x50)))
(assert (not (= (_ bv3 8) (_ bv7 8))))
(assert (not (= (_ bv3 8) (_ bv2 8))))
(assert (not (= (_ bv3 8) x80)))
(assert (not (= x50 (_ bv7 8))))
(assert (not (= x50 (_ bv2 8))))
(assert (not (= x50 x80)))
(assert (not (= (_ bv7 8) (_ bv2 8))))
(assert (not (= (_ bv7 8) x80)))
(assert (not (= (_ bv2 8) x80)))
(assert (not (= (_ bv6 8) x11)))
(assert (not (= (_ bv6 8) x21)))
(assert (not (= (_ bv6 8) x31)))
(assert (not (= (_ bv6 8) x41)))
(assert (not (= (_ bv6 8) (_ bv5 8))))
(assert (not (= (_ bv6 8) x61)))
(assert (not (= (_ bv6 8) (_ bv9 8))))
(assert (not (= (_ bv6 8) x81)))
(assert (not (= x11 x21)))
(assert (not (= x11 x31)))
(assert (not (= x11 x41)))
(assert (not (= x11 (_ bv5 8))))
(assert (not (= x11 x61)))
(assert (not (= x11 (_ bv9 8))))
(assert (not (= x11 x81)))
(assert (not (= x21 x31)))
(assert (not (= x21 x41)))
(assert (not (= x21 (_ bv5 8))))
(assert (not (= x21 x61)))
(assert (not (= x21 (_ bv9 8))))
(assert (not (= x21 x81)))
(assert (not (= x31 x41)))
(assert (not (= x31 (_ bv5 8))))
(assert (not (= x31 x61)))
(assert (not (= x31 (_ bv9 8))))
(assert (not (= x31 x81)))
(assert (not (= x41 (_ bv5 8))))
(assert (not (= x41 x61)))
(assert (not (= x41 (_ bv9 8))))
(assert (not (= x41 x81)))
(assert (not (= (_ bv5 8) x61)))
(assert (not (= (_ bv5 8) (_ bv9 8))))
(assert (not (= (_ bv5 8) x81)))
(assert (not (= x61 (_ bv9 8))))
(assert (not (= x61 x81)))
(assert (not (= (_ bv9 8) x81)))
(assert (not (= x02 (_ bv1 8))))
(assert (not (= x02 x22)))
(assert (not (= x02 (_ bv4 8))))
(assert (not (= x02 x42)))
(assert (not (= x02 (_ bv7 8))))
(assert (not (= x02 (_ bv3 8))))
(assert (not (= x02 x72)))
(assert (not (= x02 x82)))
(assert (not (= (_ bv1 8) x22)))
(assert (not (= (_ bv1 8) (_ bv4 8))))
(assert (not (= (_ bv1 8) x42)))
(assert (not (= (_ bv1 8) (_ bv7 8))))
(assert (not (= (_ bv1 8) (_ bv3 8))))
(assert (not (= (_ bv1 8) x72)))
(assert (not (= (_ bv1 8) x82)))
(assert (not (= x22 (_ bv4 8))))
(assert (not (= x22 x42)))
(assert (not (= x22 (_ bv7 8))))
(assert (not (= x22 (_ bv3 8))))
(assert (not (= x22 x72)))
(assert (not (= x22 x82)))
(assert (not (= (_ bv4 8) x42)))
(assert (not (= (_ bv4 8) (_ bv7 8))))
(assert (not (= (_ bv4 8) (_ bv3 8))))
(assert (not (= (_ bv4 8) x72)))
(assert (not (= (_ bv4 8) x82)))
(assert (not (= x42 (_ bv7 8))))
(assert (not (= x42 (_ bv3 8))))
(assert (not (= x42 x72)))
(assert (not (= x42 x82)))
(assert (not (= (_ bv7 8) (_ bv3 8))))
(assert (not (= (_ bv7 8) x72)))
(assert (not (= (_ bv7 8) x82)))
(assert (not (= (_ bv3 8) x72)))
(assert (not (= (_ bv3 8) x82)))
(assert (not (= x72 x82)))
(assert (not (= x03 (_ bv3 8))))
(assert (not (= x03 (_ bv8 8))))
(assert (not (= x03 (_ bv2 8))))
(assert (not (= x03 x43)))
(assert (not (= x03 (_ bv1 8))))
(assert (not (= x03 (_ bv6 8))))
(assert (not (= x03 (_ bv5 8))))
(assert (not (= x03 x83)))
(assert (not (= (_ bv3 8) (_ bv8 8))))
(assert (not (= (_ bv3 8) (_ bv2 8))))
(assert (not (= (_ bv3 8) x43)))
(assert (not (= (_ bv3 8) (_ bv1 8))))
(assert (not (= (_ bv3 8) (_ bv6 8))))
(assert (not (= (_ bv3 8) (_ bv5 8))))
(assert (not (= (_ bv3 8) x83)))
(assert (not (= (_ bv8 8) (_ bv2 8))))
(assert (not (= (_ bv8 8) x43)))
(assert (not (= (_ bv8 8) (_ bv1 8))))
(assert (not (= (_ bv8 8) (_ bv6 8))))
(assert (not (= (_ bv8 8) (_ bv5 8))))
(assert (not (= (_ bv8 8) x83)))
(assert (not (= (_ bv2 8) x43)))
(assert (not (= (_ bv2 8) (_ bv1 8))))
(assert (not (= (_ bv2 8) (_ bv6 8))))
(assert (not (= (_ bv2 8) (_ bv5 8))))
(assert (not (= (_ bv2 8) x83)))
(assert (not (= x43 (_ bv1 8))))
(assert (not (= x43 (_ bv6 8))))
(assert (not (= x43 (_ bv5 8))))
(assert (not (= x43 x83)))
(assert (not (= (_ bv1 8) (_ bv6 8))))
(assert (not (= (_ bv1 8) (_ bv5 8))))
(assert (not (= (_ bv1 8) x83)))
(assert (not (= (_ bv6 8) (_ bv5 8))))
(assert (not (= (_ bv6 8) x83)))
(assert (not (= (_ bv5 8) x83)))
(assert (not (= (_ bv1 8) x14)))
(assert (not (= (_ bv1 8) x24)))
(assert (not (= (_ bv1 8) x34)))
(assert (not (= (_ bv1 8) x44)))
(assert (not (= (_ bv1 8) (_ bv8 8))))
(assert (not (= (_ bv1 8) x64)))
(assert (not (= (_ bv1 8) x74)))
(assert (not (= (_ bv1 8) (_ bv4 8))))
(assert (not (= x14 x24)))
(assert (not (= x14 x34)))
(assert (not (= x14 x44)))
(assert (not (= x14 (_ bv8 8))))
(assert (not (= x14 x64)))
(assert (not (= x14 x74)))
(assert (not (= x14 (_ bv4 8))))
(assert (not (= x24 x34)))
(assert (not (= x24 x44)))
(assert (not (= x24 (_ bv8 8))))
(assert (not (= x24 x64)))
(assert (not (= x24 x74)))
(assert (not (= x24 (_ bv4 8))))
(assert (not (= x34 x44)))
(assert (not (= x34 (_ bv8 8))))
(assert (not (= x34 x64)))
(assert (not (= x34 x74)))
(assert (not (= x34 (_ bv4 8))))
(assert (not (= x44 (_ bv8 8))))
(assert (not (= x44 x64)))
(assert (not (= x44 x74)))
(assert (not (= x44 (_ bv4 8))))
(assert (not (= (_ bv8 8) x64)))
(assert (not (= (_ bv8 8) x74)))
(assert (not (= (_ bv8 8) (_ bv4 8))))
(assert (not (= x64 x74)))
(assert (not (= x64 (_ bv4 8))))
(assert (not (= x74 (_ bv4 8))))
(assert (not (= (_ bv4 8) (_ bv6 8))))
(assert (not (= (_ bv4 8) x25)))
(assert (not (= (_ bv4 8) (_ bv5 8))))
(assert (not (= (_ bv4 8) (_ bv9 8))))
(assert (not (= (_ bv4 8) x55)))
(assert (not (= (_ bv4 8) x65)))
(assert (not (= (_ bv4 8) x75)))
(assert (not (= (_ bv4 8) x85)))
(assert (not (= (_ bv6 8) x25)))
(assert (not (= (_ bv6 8) (_ bv5 8))))
(assert (not (= (_ bv6 8) (_ bv9 8))))
(assert (not (= (_ bv6 8) x55)))
(assert (not (= (_ bv6 8) x65)))
(assert (not (= (_ bv6 8) x75)))
(assert (not (= (_ bv6 8) x85)))
(assert (not (= x25 (_ bv5 8))))
(assert (not (= x25 (_ bv9 8))))
(assert (not (= x25 x55)))
(assert (not (= x25 x65)))
(assert (not (= x25 x75)))
(assert (not (= x25 x85)))
(assert (not (= (_ bv5 8) (_ bv9 8))))
(assert (not (= (_ bv5 8) x55)))
(assert (not (= (_ bv5 8) x65)))
(assert (not (= (_ bv5 8) x75)))
(assert (not (= (_ bv5 8) x85)))
(assert (not (= (_ bv9 8) x55)))
(assert (not (= (_ bv9 8) x65)))
(assert (not (= (_ bv9 8) x75)))
(assert (not (= (_ bv9 8) x85)))
(assert (not (= x55 x65)))
(assert (not (= x55 x75)))
(assert (not (= x55 x85)))
(assert (not (= x65 x75)))
(assert (not (= x65 x85)))
(assert (not (= x75 x85)))
(assert (not (= x06 (_ bv9 8))))
(assert (not (= x06 x26)))
(assert (not (= x06 (_ bv8 8))))
(assert (not (= x06 (_ bv7 8))))
(assert (not (= x06 x56)))
(assert (not (= x06 x66)))
(assert (not (= x06 (_ bv4 8))))
(assert (not (= x06 x86)))
(assert (not (= (_ bv9 8) x26)))
(assert (not (= (_ bv9 8) (_ bv8 8))))
(assert (not (= (_ bv9 8) (_ bv7 8))))
(assert (not (= (_ bv9 8) x56)))
(assert (not (= (_ bv9 8) x66)))
(assert (not (= (_ bv9 8) (_ bv4 8))))
(assert (not (= (_ bv9 8) x86)))
(assert (not (= x26 (_ bv8 8))))
(assert (not (= x26 (_ bv7 8))))
(assert (not (= x26 x56)))
(assert (not (= x26 x66)))
(assert (not (= x26 (_ bv4 8))))
(assert (not (= x26 x86)))
(assert (not (= (_ bv8 8) (_ bv7 8))))
(assert (not (= (_ bv8 8) x56)))
(assert (not (= (_ bv8 8) x66)))
(assert (not (= (_ bv8 8) (_ bv4 8))))
(assert (not (= (_ bv8 8) x86)))
(assert (not (= (_ bv7 8) x56)))
(assert (not (= (_ bv7 8) x66)))
(assert (not (= (_ bv7 8) (_ bv4 8))))
(assert (not (= (_ bv7 8) x86)))
(assert (not (= x56 x66)))
(assert (not (= x56 (_ bv4 8))))
(assert (not (= x56 x86)))
(assert (not (= x66 (_ bv4 8))))
(assert (not (= x66 x86)))
(assert (not (= (_ bv4 8) x86)))
(assert (not (= (_ bv7 8) x17)))
(assert (not (= (_ bv7 8) x27)))
(assert (not (= (_ bv7 8) (_ bv3 8))))
(assert (not (= (_ bv7 8) x47)))
(assert (not (= (_ bv7 8) (_ bv6 8))))
(assert (not (= (_ bv7 8) (_ bv8 8))))
(assert (not (= (_ bv7 8) (_ bv1 8))))
(assert (not (= (_ bv7 8) x87)))
(assert (not (= x17 x27)))
(assert (not (= x17 (_ bv3 8))))
(assert (not (= x17 x47)))
(assert (not (= x17 (_ bv6 8))))
(assert (not (= x17 (_ bv8 8))))
(assert (not (= x17 (_ bv1 8))))
(assert (not (= x17 x87)))
(assert (not (= x27 (_ bv3 8))))
(assert (not (= x27 x47)))
(assert (not (= x27 (_ bv6 8))))
(assert (not (= x27 (_ bv8 8))))
(assert (not (= x27 (_ bv1 8))))
(assert (not (= x27 x87)))
(assert (not (= (_ bv3 8) x47)))
(assert (not (= (_ bv3 8) (_ bv6 8))))
(assert (not (= (_ bv3 8) (_ bv8 8))))
(assert (not (= (_ bv3 8) (_ bv1 8))))
(assert (not (= (_ bv3 8) x87)))
(assert (not (= x47 (_ bv6 8))))
(assert (not (= x47 (_ bv8 8))))
(assert (not (= x47 (_ bv1 8))))
(assert (not (= x47 x87)))
(assert (not (= (_ bv6 8) (_ bv8 8))))
(assert (not (= (_ bv6 8) (_ bv1 8))))
(assert (not (= (_ bv6 8) x87)))
(assert (not (= (_ bv8 8) (_ bv1 8))))
(assert (not (= (_ bv8 8) x87)))
(assert (not (= (_ bv1 8) x87)))
(assert (not (= x08 x18)))
(assert (not (= x08 x28)))
(assert (not (= x08 x38)))
(assert (not (= x08 x48)))
(assert (not (= x08 x58)))
(assert (not (= x08 (_ bv2 8))))
(assert (not (= x08 x78)))
(assert (not (= x08 x88)))
(assert (not (= x18 x28)))
(assert (not (= x18 x38)))
(assert (not (= x18 x48)))
(assert (not (= x18 x58)))
(assert (not (= x18 (_ bv2 8))))
(assert (not (= x18 x78)))
(assert (not (= x18 x88)))
(assert (not (= x28 x38)))
(assert (not (= x28 x48)))
(assert (not (= x28 x58)))
(assert (not (= x28 (_ bv2 8))))
(assert (not (= x28 x78)))
(assert (not (= x28 x88)))
(assert (not (= x38 x48)))
(assert (not (= x38 x58)))
(assert (not (= x38 (_ bv2 8))))
(assert (not (= x38 x78)))
(assert (not (= x38 x88)))
(assert (not (= x48 x58)))
(assert (not (= x48 (_ bv2 8))))
(assert (not (= x48 x78)))
(assert (not (= x48 x88)))
(assert (not (= x58 (_ bv2 8))))
(assert (not (= x58 x78)))
(assert (not (= x58 x88)))
(assert (not (= (_ bv2 8) x78)))
(assert (not (= (_ bv2 8) x88)))
(assert (not (= x78 x88)))
(assert (not (= x00 (_ bv6 8))))
(assert (not (= x00 x02)))
(assert (not (= x00 (_ bv5 8))))
(assert (not (= x00 x11)))
(assert (not (= x00 (_ bv1 8))))
(assert (not (= x00 x20)))
(assert (not (= x00 x21)))
(assert (not (= x00 x22)))
(assert (not (= (_ bv6 8) x02)))
(assert (not (= (_ bv6 8) (_ bv5 8))))
(assert (not (= (_ bv6 8) x11)))
(assert (not (= (_ bv6 8) (_ bv1 8))))
(assert (not (= (_ bv6 8) x20)))
(assert (not (= (_ bv6 8) x21)))
(assert (not (= (_ bv6 8) x22)))
(assert (not (= x02 (_ bv5 8))))
(assert (not (= x02 x11)))
(assert (not (= x02 (_ bv1 8))))
(assert (not (= x02 x20)))
(assert (not (= x02 x21)))
(assert (not (= x02 x22)))
(assert (not (= (_ bv5 8) x11)))
(assert (not (= (_ bv5 8) (_ bv1 8))))
(assert (not (= (_ bv5 8) x20)))
(assert (not (= (_ bv5 8) x21)))
(assert (not (= (_ bv5 8) x22)))
(assert (not (= x11 (_ bv1 8))))
(assert (not (= x11 x20)))
(assert (not (= x11 x21)))
(assert (not (= x11 x22)))
(assert (not (= (_ bv1 8) x20)))
(assert (not (= (_ bv1 8) x21)))
(assert (not (= (_ bv1 8) x22)))
(assert (not (= x20 x21)))
(assert (not (= x20 x22)))
(assert (not (= x21 x22)))
(assert (not (= x03 (_ bv1 8))))
(assert (not (= x03 (_ bv4 8))))
(assert (not (= x03 (_ bv3 8))))
(assert (not (= x03 x14)))
(assert (not (= x03 (_ bv6 8))))
(assert (not (= x03 (_ bv8 8))))
(assert (not (= x03 x24)))
(assert (not (= x03 x25)))
(assert (not (= (_ bv1 8) (_ bv4 8))))
(assert (not (= (_ bv1 8) (_ bv3 8))))
(assert (not (= (_ bv1 8) x14)))
(assert (not (= (_ bv1 8) (_ bv6 8))))
(assert (not (= (_ bv1 8) (_ bv8 8))))
(assert (not (= (_ bv1 8) x24)))
(assert (not (= (_ bv1 8) x25)))
(assert (not (= (_ bv4 8) (_ bv3 8))))
(assert (not (= (_ bv4 8) x14)))
(assert (not (= (_ bv4 8) (_ bv6 8))))
(assert (not (= (_ bv4 8) (_ bv8 8))))
(assert (not (= (_ bv4 8) x24)))
(assert (not (= (_ bv4 8) x25)))
(assert (not (= (_ bv3 8) x14)))
(assert (not (= (_ bv3 8) (_ bv6 8))))
(assert (not (= (_ bv3 8) (_ bv8 8))))
(assert (not (= (_ bv3 8) x24)))
(assert (not (= (_ bv3 8) x25)))
(assert (not (= x14 (_ bv6 8))))
(assert (not (= x14 (_ bv8 8))))
(assert (not (= x14 x24)))
(assert (not (= x14 x25)))
(assert (not (= (_ bv6 8) (_ bv8 8))))
(assert (not (= (_ bv6 8) x24)))
(assert (not (= (_ bv6 8) x25)))
(assert (not (= (_ bv8 8) x24)))
(assert (not (= (_ bv8 8) x25)))
(assert (not (= x24 x25)))
(assert (not (= x06 (_ bv7 8))))
(assert (not (= x06 x08)))
(assert (not (= x06 (_ bv9 8))))
(assert (not (= x06 x17)))
(assert (not (= x06 x18)))
(assert (not (= x06 x26)))
(assert (not (= x06 x27)))
(assert (not (= x06 x28)))
(assert (not (= (_ bv7 8) x08)))
(assert (not (= (_ bv7 8) (_ bv9 8))))
(assert (not (= (_ bv7 8) x17)))
(assert (not (= (_ bv7 8) x18)))
(assert (not (= (_ bv7 8) x26)))
(assert (not (= (_ bv7 8) x27)))
(assert (not (= (_ bv7 8) x28)))
(assert (not (= x08 (_ bv9 8))))
(assert (not (= x08 x17)))
(assert (not (= x08 x18)))
(assert (not (= x08 x26)))
(assert (not (= x08 x27)))
(assert (not (= x08 x28)))
(assert (not (= (_ bv9 8) x17)))
(assert (not (= (_ bv9 8) x18)))
(assert (not (= (_ bv9 8) x26)))
(assert (not (= (_ bv9 8) x27)))
(assert (not (= (_ bv9 8) x28)))
(assert (not (= x17 x18)))
(assert (not (= x17 x26)))
(assert (not (= x17 x27)))
(assert (not (= x17 x28)))
(assert (not (= x18 x26)))
(assert (not (= x18 x27)))
(assert (not (= x18 x28)))
(assert (not (= x26 x27)))
(assert (not (= x26 x28)))
(assert (not (= x27 x28)))
(assert (not (= (_ bv6 8) x31)))
(assert (not (= (_ bv6 8) (_ bv4 8))))
(assert (not (= (_ bv6 8) (_ bv3 8))))
(assert (not (= (_ bv6 8) x41)))
(assert (not (= (_ bv6 8) x42)))
(assert (not (= (_ bv6 8) x50)))
(assert (not (= (_ bv6 8) (_ bv5 8))))
(assert (not (= (_ bv6 8) (_ bv7 8))))
(assert (not (= x31 (_ bv4 8))))
(assert (not (= x31 (_ bv3 8))))
(assert (not (= x31 x41)))
(assert (not (= x31 x42)))
(assert (not (= x31 x50)))
(assert (not (= x31 (_ bv5 8))))
(assert (not (= x31 (_ bv7 8))))
(assert (not (= (_ bv4 8) (_ bv3 8))))
(assert (not (= (_ bv4 8) x41)))
(assert (not (= (_ bv4 8) x42)))
(assert (not (= (_ bv4 8) x50)))
(assert (not (= (_ bv4 8) (_ bv5 8))))
(assert (not (= (_ bv4 8) (_ bv7 8))))
(assert (not (= (_ bv3 8) x41)))
(assert (not (= (_ bv3 8) x42)))
(assert (not (= (_ bv3 8) x50)))
(assert (not (= (_ bv3 8) (_ bv5 8))))
(assert (not (= (_ bv3 8) (_ bv7 8))))
(assert (not (= x41 x42)))
(assert (not (= x41 x50)))
(assert (not (= x41 (_ bv5 8))))
(assert (not (= x41 (_ bv7 8))))
(assert (not (= x42 x50)))
(assert (not (= x42 (_ bv5 8))))
(assert (not (= x42 (_ bv7 8))))
(assert (not (= x50 (_ bv5 8))))
(assert (not (= x50 (_ bv7 8))))
(assert (not (= (_ bv5 8) (_ bv7 8))))
(assert (not (= (_ bv2 8) x34)))
(assert (not (= (_ bv2 8) (_ bv5 8))))
(assert (not (= (_ bv2 8) x43)))
(assert (not (= (_ bv2 8) x44)))
(assert (not (= (_ bv2 8) (_ bv9 8))))
(assert (not (= (_ bv2 8) (_ bv1 8))))
(assert (not (= (_ bv2 8) (_ bv8 8))))
(assert (not (= (_ bv2 8) x55)))
(assert (not (= x34 (_ bv5 8))))
(assert (not (= x34 x43)))
(assert (not (= x34 x44)))
(assert (not (= x34 (_ bv9 8))))
(assert (not (= x34 (_ bv1 8))))
(assert (not (= x34 (_ bv8 8))))
(assert (not (= x34 x55)))
(assert (not (= (_ bv5 8) x43)))
(assert (not (= (_ bv5 8) x44)))
(assert (not (= (_ bv5 8) (_ bv9 8))))
(assert (not (= (_ bv5 8) (_ bv1 8))))
(assert (not (= (_ bv5 8) (_ bv8 8))))
(assert (not (= (_ bv5 8) x55)))
(assert (not (= x43 x44)))
(assert (not (= x43 (_ bv9 8))))
(assert (not (= x43 (_ bv1 8))))
(assert (not (= x43 (_ bv8 8))))
(assert (not (= x43 x55)))
(assert (not (= x44 (_ bv9 8))))
(assert (not (= x44 (_ bv1 8))))
(assert (not (= x44 (_ bv8 8))))
(assert (not (= x44 x55)))
(assert (not (= (_ bv9 8) (_ bv1 8))))
(assert (not (= (_ bv9 8) (_ bv8 8))))
(assert (not (= (_ bv9 8) x55)))
(assert (not (= (_ bv1 8) (_ bv8 8))))
(assert (not (= (_ bv1 8) x55)))
(assert (not (= (_ bv8 8) x55)))
(assert (not (= (_ bv8 8) (_ bv3 8))))
(assert (not (= (_ bv8 8) x38)))
(assert (not (= (_ bv8 8) (_ bv7 8))))
(assert (not (= (_ bv8 8) x47)))
(assert (not (= (_ bv8 8) x48)))
(assert (not (= (_ bv8 8) x56)))
(assert (not (= (_ bv8 8) (_ bv6 8))))
(assert (not (= (_ bv8 8) x58)))
(assert (not (= (_ bv3 8) x38)))
(assert (not (= (_ bv3 8) (_ bv7 8))))
(assert (not (= (_ bv3 8) x47)))
(assert (not (= (_ bv3 8) x48)))
(assert (not (= (_ bv3 8) x56)))
(assert (not (= (_ bv3 8) (_ bv6 8))))
(assert (not (= (_ bv3 8) x58)))
(assert (not (= x38 (_ bv7 8))))
(assert (not (= x38 x47)))
(assert (not (= x38 x48)))
(assert (not (= x38 x56)))
(assert (not (= x38 (_ bv6 8))))
(assert (not (= x38 x58)))
(assert (not (= (_ bv7 8) x47)))
(assert (not (= (_ bv7 8) x48)))
(assert (not (= (_ bv7 8) x56)))
(assert (not (= (_ bv7 8) (_ bv6 8))))
(assert (not (= (_ bv7 8) x58)))
(assert (not (= x47 x48)))
(assert (not (= x47 x56)))
(assert (not (= x47 (_ bv6 8))))
(assert (not (= x47 x58)))
(assert (not (= x48 x56)))
(assert (not (= x48 (_ bv6 8))))
(assert (not (= x48 x58)))
(assert (not (= x56 (_ bv6 8))))
(assert (not (= x56 x58)))
(assert (not (= (_ bv6 8) x58)))
(assert (not (= (_ bv7 8) x61)))
(assert (not (= (_ bv7 8) (_ bv3 8))))
(assert (not (= (_ bv7 8) (_ bv2 8))))
(assert (not (= (_ bv7 8) (_ bv9 8))))
(assert (not (= (_ bv7 8) x72)))
(assert (not (= (_ bv7 8) x80)))
(assert (not (= (_ bv7 8) x81)))
(assert (not (= (_ bv7 8) x82)))
(assert (not (= x61 (_ bv3 8))))
(assert (not (= x61 (_ bv2 8))))
(assert (not (= x61 (_ bv9 8))))
(assert (not (= x61 x72)))
(assert (not (= x61 x80)))
(assert (not (= x61 x81)))
(assert (not (= x61 x82)))
(assert (not (= (_ bv3 8) (_ bv2 8))))
(assert (not (= (_ bv3 8) (_ bv9 8))))
(assert (not (= (_ bv3 8) x72)))
(assert (not (= (_ bv3 8) x80)))
(assert (not (= (_ bv3 8) x81)))
(assert (not (= (_ bv3 8) x82)))
(assert (not (= (_ bv2 8) (_ bv9 8))))
(assert (not (= (_ bv2 8) x72)))
(assert (not (= (_ bv2 8) x80)))
(assert (not (= (_ bv2 8) x81)))
(assert (not (= (_ bv2 8) x82)))
(assert (not (= (_ bv9 8) x72)))
(assert (not (= (_ bv9 8) x80)))
(assert (not (= (_ bv9 8) x81)))
(assert (not (= (_ bv9 8) x82)))
(assert (not (= x72 x80)))
(assert (not (= x72 x81)))
(assert (not (= x72 x82)))
(assert (not (= x80 x81)))
(assert (not (= x80 x82)))
(assert (not (= x81 x82)))
(assert (not (= (_ bv6 8) x64)))
(assert (not (= (_ bv6 8) x65)))
(assert (not (= (_ bv6 8) (_ bv5 8))))
(assert (not (= (_ bv6 8) x74)))
(assert (not (= (_ bv6 8) x75)))
(assert (not (= (_ bv6 8) x83)))
(assert (not (= (_ bv6 8) (_ bv4 8))))
(assert (not (= (_ bv6 8) x85)))
(assert (not (= x64 x65)))
(assert (not (= x64 (_ bv5 8))))
(assert (not (= x64 x74)))
(assert (not (= x64 x75)))
(assert (not (= x64 x83)))
(assert (not (= x64 (_ bv4 8))))
(assert (not (= x64 x85)))
(assert (not (= x65 (_ bv5 8))))
(assert (not (= x65 x74)))
(assert (not (= x65 x75)))
(assert (not (= x65 x83)))
(assert (not (= x65 (_ bv4 8))))
(assert (not (= x65 x85)))
(assert (not (= (_ bv5 8) x74)))
(assert (not (= (_ bv5 8) x75)))
(assert (not (= (_ bv5 8) x83)))
(assert (not (= (_ bv5 8) (_ bv4 8))))
(assert (not (= (_ bv5 8) x85)))
(assert (not (= x74 x75)))
(assert (not (= x74 x83)))
(assert (not (= x74 (_ bv4 8))))
(assert (not (= x74 x85)))
(assert (not (= x75 x83)))
(assert (not (= x75 (_ bv4 8))))
(assert (not (= x75 x85)))
(assert (not (= x83 (_ bv4 8))))
(assert (not (= x83 x85)))
(assert (not (= (_ bv4 8) x85)))
(assert (not (= x66 (_ bv8 8))))
(assert (not (= x66 (_ bv2 8))))
(assert (not (= x66 (_ bv4 8))))
(assert (not (= x66 (_ bv1 8))))
(assert (not (= x66 x78)))
(assert (not (= x66 x86)))
(assert (not (= x66 x87)))
(assert (not (= x66 x88)))
(assert (not (= (_ bv8 8) (_ bv2 8))))
(assert (not (= (_ bv8 8) (_ bv4 8))))
(assert (not (= (_ bv8 8) (_ bv1 8))))
(assert (not (= (_ bv8 8) x78)))
(assert (not (= (_ bv8 8) x86)))
(assert (not (= (_ bv8 8) x87)))
(assert (not (= (_ bv8 8) x88)))
(assert (not (= (_ bv2 8) (_ bv4 8))))
(assert (not (= (_ bv2 8) (_ bv1 8))))
(assert (not (= (_ bv2 8) x78)))
(assert (not (= (_ bv2 8) x86)))
(assert (not (= (_ bv2 8) x87)))
(assert (not (= (_ bv2 8) x88)))
(assert (not (= (_ bv4 8) (_ bv1 8))))
(assert (not (= (_ bv4 8) x78)))
(assert (not (= (_ bv4 8) x86)))
(assert (not (= (_ bv4 8) x87)))
(assert (not (= (_ bv4 8) x88)))
(assert (not (= (_ bv1 8) x78)))
(assert (not (= (_ bv1 8) x86)))
(assert (not (= (_ bv1 8) x87)))
(assert (not (= (_ bv1 8) x88)))
(assert (not (= x78 x86)))
(assert (not (= x78 x87)))
(assert (not (= x78 x88)))
(assert (not (= x86 x87)))
(assert (not (= x86 x88)))
(assert (not (= x87 x88)))
(check-sat)
(exit)
